5	16	9	14	8	5	6	12	15	19	18	11	8	13	8	17	20	17	17	10	6	13	9	9	1	19	11	19	6	12	12	1	7	8	14	9	8	7	2	14	19	17	14	15	20	6	17	19	5	16
7	13	16	9	2	6	2	15	19	5	18	5	3	9	3	18	11	2	9	5	11	11	10	3	12	6	16	13	1	6	1	4	4	5	1	7	8	3	7	12	20	15	4	5	17	20	15	15	8	16
17	15	13	14	19	5	13	2	6	10	19	5	10	9	14	6	7	17	1	12	15	2	7	14	3	19	3	2	6	10	16	15	6	10	20	7	9	5	9	12	3	20	13	10	13	2	20	6	7	4
19	8	20	20	13	12	15	2	2	7	6	10	3	15	3	9	6	9	16	17	20	17	14	4	10	7	16	6	18	5	9	19	20	8	1	10	10	17	13	10	11	9	15	19	17	7	20	9	17	18
